50

99 28 329
96 8 503
95 3 405
95 18 464
92 21 331
91 14 427
90 1 391
86 8 381
86 15 466
86 20 587
85 8 350
80 2 328
77 4 231
77 6 243
76 18 548
76 5 582
71 2 462
70 4 218
70 10 577
69 3 477
68 3 564
64 18 335
64 4 378
61 5 435
60 8 257
60 1 243
56 5 339
55 9 221
53 2 346
52 12 570
50 9 386
48 8 513
44 14 247
41 3 230
40 10 441
38 6 321
38 10 562
37 4 281
35 9 406
21 4 274
19 3 274
14 1 525
12 2 583
9 1 500
6 1 479
6 1 462
6 2 204
4 1 87
3 1 279
2 1 300
